c 1 CONFIG_WHICH
c 2 CONFIG_TOYSH_PROFILE
c 3 CONFIG_CATV
c 4 CONFIG_MDEV_CONF
c 5 CONFIG_TOYSH_JOBCTL
c 6 CONFIG_SYNC
c 7 CONFIG_READLINK
c 8 CONFIG_DF
c 9 CONFIG_DF_PEDANTIC
c 10 CONFIG_BZCAT
c 11 CONFIG_YES
c 12 CONFIG_EXIT
c 13 CONFIG_TOYBOX
c 14 CONFIG_TOYSH_WILDCARDS
c 15 CONFIG_HELP_LONG
c 16 CONFIG_DIRNAME
c 17 CONFIG_TOYSH_PIPES
c 18 CONFIG_CD
c 19 CONFIG_MKFIFO
c 20 CONFIG_MKE2FS_EXTENDED
c 21 CONFIG_MKE2FS
c 22 CONFIG_TOYBOX_FREE
c 23 CONFIG_TOYSH_BUILTINS
c 24 CONFIG_DMESG
c 25 CONFIG_SLEEP
c 26 CONFIG_TOYBOX_DEBUG
c 27 CONFIG_TOYSH_ARRAYS
c 28 CONFIG_TTY
c 29 CONFIG_PWD
c 30 CONFIG_ONEIT
c 31 CONFIG_CD_P
c 32 CONFIG_TOYSH_QUOTES
c 33 CONFIG_BASENAME
c 34 CONFIG_MKE2FS_JOURNAL
c 35 CONFIG_MKE2FS_LABEL
c 36 CONFIG_HELLO
c 37 CONFIG_COUNT
c 38 CONFIG_FALSE
c 39 CONFIG_TOYSH_LOCALS
c 40 CONFIG_TOYSH_ENVVARS
c 41 CONFIG_ECHO
c 42 CONFIG_TRUE
c 43 CONFIG_MDEV
c 44 CONFIG_READLINK_F
c 45 CONFIG_TOYSH
c 46 CONFIG_HELP
c 47 CONFIG_TOYSH_FLOWCTL
c 48 CONFIG_MKE2FS_GEN
c 49 CONFIG_TOYSH_TTY
c 50 CONFIG_TOUCH
c 51 CONFIG_TOYSH_PROCARGS
p cnf 51 24
-31 0
8 -9 0
-5 49 0
7 -44 0
-20 21 0
-15 46 0
-4 43 0
-39 40 0
21 -35 0
45 -49 0
-17 45 0
-14 32 0
21 -48 0
45 -47 0
-18 0
21 -34 0
-12 0
-13 0
-27 39 0
32 -51 0
-32 45 0
32 -40 0
-2 49 0
-23 45 0
